p td 40 80
0 20
0 17
0 28
0 10
0 9
1 39
1 23
1 8
1 11
1 7
2 3
2 9
2 17
2 32
3 14
3 10
3 27
4 21
4 31
4 13
5 16
5 10
6 7
6 8
6 26
7 19
7 32
7 30
7 21
8 15
9 10
9 26
9 25
10 12
11 18
11 35
11 19
12 14
12 18
12 21
12 36
12 24
13 14
13 23
13 33
13 31
14 27
14 19
14 30
15 16
15 22
15 35
15 31
16 24
16 36
18 20
18 28
19 21
19 32
20 21
20 39
20 34
22 38
23 29
24 25
25 31
25 36
27 33
27 35
29 31
29 39
30 31
33 35
34 35
34 36
35 37
35 38
37 38
37 39
38 39
